30 1 5
576 262 585 679 49 23 889 881 882 559 981 845 134 824 472 503 841 476 887 399 244 365 131 73 488 711 499 832 877 545 
700 452 807 637 130 855 659 371 87 541 929 419 737 62 242 208 564 434 35 803 832 279 519 315 703 358 25 201 190 901 
746 241 704 904 229 834 110 888 556 196 780 484 615 868 545 208 427 460 642 461 614 825 91 133 491 793 490 516 346 679 
768 443 920 472 346 148 657 455 387 212 2 518 695 616 737 591 176 515 402 169 976 16 993 418 148 484 211 637 351 556 
668 118 350 939 941 695 438 949 501 177 512 502 46 206 118 783 148 645 297 550 813 624 565 805 42 64 640 604 52 990 
5110 7190 4600 8600 90 7520 9060 4470 7010 4060 6230 2120 9070 200 7700 3760 8020 2690 200 4510 8180 8320 4260 7340 9890 4670 7970 6280 4220 8490 
85910
